c turning on binary mode checking
c parsing input formula with 259840 variables and 1039929 clauses
c finished parsing, read 3157966 bytes from proof file
c detected empty clause; start verification via backward checking
c 11414 of 1039929 clauses in core                            
c 3608 of 117324 lemmas in core using 180322 resolution steps
c 0 RAT lemmas in core; 1602 redundant literals in core lemmas
s VERIFIED
c verification time: 1.863 seconds
